\ENCODING=ISO-8859-1
\Problem name: mknap3

Maximize
 obj1: 100 x0 + 220 x1 + 90 x2 + 400 x3 + 300 x4 + 400 x5 + 205 x6 + 120 x7
       + 160 x8 + 580 x9 + 400 x10 + 140 x11 + 100 x12 + 1300 x13 + 650 x14
       + 320 x15 + 480 x16 + 80 x17 + 60 x18 + 2550 x19 + 3100 x20 + 1100 x21
       + 950 x22 + 450 x23 + 300 x24 + 220 x25 + 200 x26 + 520 x27
Subject To
 c0: 8 x0 + 24 x1 + 13 x2 + 80 x3 + 70 x4 + 80 x5 + 45 x6 + 15 x7 + 28 x8
     + 90 x9 + 130 x10 + 32 x11 + 20 x12 + 120 x13 + 40 x14 + 30 x15 + 20 x16
     + 6 x17 + 3 x18 + 180 x19 + 220 x20 + 50 x21 + 30 x22 + 50 x23 + 12 x24
     + 5 x25 + 8 x26 + 18 x27 <= 930
 c1: 8 x0 + 44 x1 + 13 x2 + 100 x3 + 100 x4 + 90 x5 + 75 x6 + 25 x7 + 28 x8
     + 120 x9 + 130 x10 + 32 x11 + 40 x12 + 160 x13 + 40 x14 + 60 x15 + 55 x16
     + 10 x17 + 6 x18 + 240 x19 + 290 x20 + 80 x21 + 90 x22 + 70 x23 + 27 x24
     + 17 x25 + 8 x26 + 28 x27 <= 1210
 c2: 3 x0 + 6 x1 + 4 x2 + 20 x3 + 20 x4 + 30 x5 + 8 x6 + 3 x7 + 12 x8 + 14 x9
     + 40 x10 + 6 x11 + 3 x12 + 20 x13 + 5 x14 + 5 x16 + 3 x17 + 20 x19
     + 30 x20 + 40 x21 + 10 x22 + 5 x24 + 10 x27 <= 272
 c3: 5 x0 + 9 x1 + 6 x2 + 40 x3 + 30 x4 + 40 x5 + 16 x6 + 5 x7 + 18 x8 + 24 x9
     + 60 x10 + 16 x11 + 11 x12 + 30 x13 + 25 x14 + 10 x15 + 13 x16 + 5 x17
     + x18 + 80 x19 + 60 x20 + 50 x21 + 20 x22 + 30 x23 + 10 x24 + 5 x25
     + 3 x26 + 20 x27 <= 462
 c4: 5 x0 + 11 x1 + 7 x2 + 50 x3 + 40 x4 + 40 x5 + 19 x6 + 7 x7 + 18 x8 + 29 x9
     + 70 x10 + 21 x11 + 17 x12 + 30 x13 + 25 x14 + 15 x15 + 25 x16 + 5 x17
     + x18 + 100 x19 + 70 x20 + 55 x21 + 20 x22 + 50 x23 + 15 x24 + 15 x25
     + 6 x26 + 20 x27 <= 532
 c5: 5 x0 + 11 x1 + 7 x2 + 55 x3 + 40 x4 + 40 x5 + 21 x6 + 9 x7 + 18 x8 + 29 x9
     + 70 x10 + 21 x11 + 17 x12 + 35 x13 + 25 x14 + 20 x15 + 25 x16 + 5 x17
     + 2 x18 + 110 x19 + 70 x20 + 55 x21 + 20 x22 + 50 x23 + 20 x24 + 15 x25
     + 6 x26 + 20 x27 <= 572
 c6: x2 + 10 x3 + 4 x4 + 10 x5 + 6 x7 + 6 x9 + 32 x10 + 3 x11 + 70 x13 + 10 x14
     + 30 x20 + 10 x21 + 10 x23 + 10 x24 + 5 x25 + 10 x27 <= 240
 c7: 3 x0 + 4 x1 + 5 x2 + 20 x3 + 14 x4 + 20 x5 + 6 x6 + 12 x7 + 10 x8 + 18 x9
     + 42 x10 + 9 x11 + 12 x12 + 100 x13 + 20 x14 + 5 x15 + 6 x16 + 4 x17 + x18
     + 20 x19 + 50 x20 + 30 x21 + 5 x22 + 20 x23 + 20 x24 + 10 x25 + 10 x26
     + 20 x27 <= 400
 c8: 3 x0 + 6 x1 + 9 x2 + 30 x3 + 29 x4 + 20 x5 + 12 x6 + 12 x7 + 10 x8 + 30 x9
     + 42 x10 + 18 x11 + 18 x12 + 110 x13 + 20 x14 + 15 x15 + 18 x16 + 7 x17
     + 2 x18 + 40 x19 + 60 x20 + 50 x21 + 25 x22 + 25 x23 + 25 x24 + 15 x25
     + 10 x26 + 28 x27 <= 470
 c9: 3 x0 + 8 x1 + 9 x2 + 35 x3 + 29 x4 + 20 x5 + 16 x6 + 15 x7 + 10 x8 + 30 x9
     + 42 x10 + 20 x11 + 18 x12 + 120 x13 + 20 x14 + 20 x15 + 22 x16 + 7 x17
     + 3 x18 + 50 x19 + 60 x20 + 55 x21 + 25 x22 + 30 x23 + 25 x24 + 15 x25
     + 10 x26 + 28 x27 <= 490
Bounds
 0 <= x0 <= 1
 0 <= x1 <= 1
 0 <= x2 <= 1
 0 <= x3 <= 1
 0 <= x4 <= 1
 0 <= x5 <= 1
 0 <= x6 <= 1
 0 <= x7 <= 1
 0 <= x8 <= 1
 0 <= x9 <= 1
 0 <= x10 <= 1
 0 <= x11 <= 1
 0 <= x12 <= 1
 0 <= x13 <= 1
 0 <= x14 <= 1
 0 <= x15 <= 1
 0 <= x16 <= 1
 0 <= x17 <= 1
 0 <= x18 <= 1
 0 <= x19 <= 1
 0 <= x20 <= 1
 0 <= x21 <= 1
 0 <= x22 <= 1
 0 <= x23 <= 1
 0 <= x24 <= 1
 0 <= x25 <= 1
 0 <= x26 <= 1
 0 <= x27 <= 1
End
